HFSDDW
15	9	3
0	65	1	59	2	4
0	70	1	91	2	52
0	54	1	4	2	48
0	27	1	99	2	93
0	48	1	15	2	52
0	29	1	57	2	4
0	1	1	40	2	53
0	42	1	93	2	24
0	26	1	94	2	15
0	2	1	40	2	39
0	25	1	45	2	98
0	87	1	50	2	82
0	32	1	64	2	23
0	17	1	21	2	97
0	53	1	5	2	23
LBCmax: 276
RELDUE
-1	153	4	5
-1	168	6	1
-1	152	1	5
-1	149	9	6
-1	164	6	7
-1	160	9	9
-1	179	8	8
-1	178	2	5
-1	146	8	8
-1	153	1	9
-1	150	4	8
-1	174	8	9
-1	182	9	5
-1	163	7	8
-1	192	6	3
DDW
147	159
150	186
146	158
140	158
138	190
138	182
166	192
162	194
145	147
132	174
140	160
141	207
158	206
145	181
173	211
